NAME: tsp10_28
COMMENT: 10-tsp problem (Padberg/Rinaldi)
TYPE: TSP
DIMENSION: 10
EDGE_WEIGHT_TYPE : EUC_2D
NODE_COORD_SECTION
1.00 34.77 5.02
2.00 33.62 6.48
3.00 2.01 22.11
4.00 38.73 38.67
5.00 31.65 14.44
6.00 12.89 27.55
7.00 15.96 35.93
8.00 23.61 24.09
9.00 5.72 24.69
10.00 8.01 23.57
